lbl,CUST NO.,READY TIME,XCOORD.,YCOORD.,DEMAND,DUE DATE,SERVICE TIME
13,93,51,28,99,10,187,90
13,55,94,26,105,40,200,90
13,135,182,28,107,20,298,90
13,58,280,21,115,10,401,90
13,184,396,31,112,20,486,90
13,199,473,34,108,10,599,90
13,37,578,32,106,10,680,90
13,81,659,34,104,10,785,90
13,138,756,36,105,20,873,90
13,137,852,35,102,10,963,90
13,183,931,35,99,20,1069,90
